min: 45 x1_1 + 60 x1_2 + 25 x1_3 + 3 x1_4 + 76 x1_5 + 94 x1_6 + 46 x2_1 + 53 x2_2 + 2 x2_3 + 35 x2_4 + 30 x2_5 + 88 x2_6 + 31 x3_1 + 89 x3_2 + 82 x3_3 + 16 x3_4 + 67 x3_5 + 91 x3_6 + 21 x4_1 + 18 x4_2 + 11 x4_3 + 5 x4_4 + 94 x4_5 + 48 x4_6 + 8 x5_1 + 25 x5_2 + 13 x5_3 + 35 x5_4 + 88 x5_5 + 17 x5_6 + 45 x6_1 + 17 x6_2 + 45 x6_3 + 51 x6_4 + 33 x6_5 + 99 x6_6;

st
x1_1 + x1_2 + x1_3 + x1_4 + x1_5 + x1_6 <= 3478;
x2_1 + x2_2 + x2_3 + x2_4 + x2_5 + x2_6 <= 3222;
x3_1 + x3_2 + x3_3 + x3_4 + x3_5 + x3_6 <= 417;
x4_1 + x4_2 + x4_3 + x4_4 + x4_5 + x4_6 <= 736;
x5_1 + x5_2 + x5_3 + x5_4 + x5_5 + x5_6 <= 2124;
x6_1 + x6_2 + x6_3 + x6_4 + x6_5 + x6_6 <= 937;

x1_1 + x2_1 + x3_1 + x4_1 + x5_1 + x6_1 >= 2087;
x1_2 + x2_2 + x3_2 + x4_2 + x5_2 + x6_2 >= 2859;
x1_3 + x2_3 + x3_3 + x4_3 + x5_3 + x6_3 >= 1409;
x1_4 + x2_4 + x3_4 + x4_4 + x5_4 + x6_4 >= 472;
x1_5 + x2_5 + x3_5 + x4_5 + x5_5 + x6_5 >= 4686;
x1_6 + x2_6 + x3_6 + x4_6 + x5_6 + x6_6 >= 182;

x1_1 >= 0;
x1_2 >= 0;
x1_3 >= 0;
x1_4 >= 0;
x1_5 >= 0;
x1_6 >= 0;
x2_1 >= 0;
x2_2 >= 0;
x2_3 >= 0;
x2_4 >= 0;
x2_5 >= 0;
x2_6 >= 0;
x3_1 >= 0;
x3_2 >= 0;
x3_3 >= 0;
x3_4 >= 0;
x3_5 >= 0;
x3_6 >= 0;
x4_1 >= 0;
x4_2 >= 0;
x4_3 >= 0;
x4_4 >= 0;
x4_5 >= 0;
x4_6 >= 0;
x5_1 >= 0;
x5_2 >= 0;
x5_3 >= 0;
x5_4 >= 0;
x5_5 >= 0;
x5_6 >= 0;
x6_1 >= 0;
x6_2 >= 0;
x6_3 >= 0;
x6_4 >= 0;
x6_5 >= 0;
x6_6 >= 0;